NAME : netgen18-5_22
COMMENT : Generated using the function generateClusteredNetwork from the R-package netgen (Bossek,2015) - Number of clusters: 5
TYPE : TSP
DIMENSION : 18
EDGE_WEIGHT_TYPE : EUC_2D
NODE_COORD_SECTION
1 6.3600549408 31.9890697363
2 3.0006151599 40.0772335666
3 9.9164004296 29.9706223924
4 49.8604292287 82.7463660066
5 51.5363810452 87.7102627724
6 53.8190618895 86.7644747567
7 75.2417601158 3.963744552
8 72.1416790675 7.5756498528
9 85.4276207537 4.7814346754
10 98.5457796805 69.3277233998
11 89.0461695062 60.7388396557
12 89.8203753108 59.3429554051
13 26.1392749933 40.9223566871
14 32.5005002722 43.4949232532
15 21.8680687838 41.730039087
16 22.4445002145 50.3424889627
17 27.5326127179 46.4769760446
18 24.6691919608 46.440498905
EOF
